words_hard_train/6761.qaiger
aag 129 16 0 1 113
2
4
12
14
18
22
26
30
34
48
60
72
84
96
108
116
259
6 2 4
8 3 5
10 7 9
16 13 15
20 16 19
24 20 23
28 24 27
32 28 31
36 32 35
38 10 36
40 11 37
42 39 41
44 33 34
46 45 37
50 46 48
52 47 49
54 51 53
56 29 30
58 57 33
62 58 60
64 59 61
66 63 65
68 25 26
70 69 29
74 70 72
76 71 73
78 75 77
80 21 22
82 81 25
86 82 84
88 83 85
90 87 89
92 17 18
94 93 21
98 94 96
100 95 97
102 99 101
104 12 14
106 105 17
110 106 109
112 107 108
114 111 113
118 116 13
120 117 12
122 119 121
124 114 122
126 103 124
128 91 126
130 79 128
132 67 130
134 55 132
136 42 135
138 104 18
140 138 22
142 140 26
144 142 30
146 144 34
148 146 5
150 147 4
152 149 151
154 143 31
156 155 145
158 66 131
160 159 133
162 156 160
164 145 35
166 165 147
168 54 133
170 169 135
172 166 170
174 163 173
176 141 27
178 177 143
180 78 129
182 181 131
184 179 183
186 157 161
188 185 187
190 139 23
192 191 141
194 90 127
196 195 129
198 192 196
200 178 182
202 199 201
204 118 109
206 123 109
208 207 106
210 208 125
212 205 211
214 102 125
216 215 127
218 105 19
220 219 139
222 216 220
224 212 223
226 217 221
228 225 227
230 193 197
232 228 231
234 202 233
236 188 235
238 174 237
240 167 171
242 239 241
244 152 242
246 136 245
248 153 243
250 43 134
252 248 251
254 250 244
256 253 255
258 247 256
i0 2 y2[7]
i1 1 x2[7]
i2 1 x2[0]
i3 1 x2[1]
i4 1 x2[2]
i5 1 x2[3]
i6 1 x2[4]
i7 1 x2[5]
i8 1 x2[6]
i9 2 y2[6]
i10 2 y2[5]
i11 2 y2[4]
i12 2 y2[3]
i13 2 y2[2]
i14 2 y2[1]
i15 2 y2[0]
o0 bv[0]
c
simplified
  >
    xor
      unary minus
        1 x2
      2 y2
    add
      1
      1 x2
