words_hard_train/6761.qaiger.qdimacs
p cnf 129 340
a 2 6 7 9 11 13 15 17 0
e 1 3 4 5 8 10 12 14 16 18 19 20 21 22 23 24 25 26 27 28 29 30 31 32 33 34 35 36 37 38 39 40 41 42 43 44 45 46 47 48 49 50 51 52 53 54 55 56 57 58 59 60 61 62 63 64 65 66 67 68 69 70 71 72 73 74 75 76 77 78 79 80 81 82 83 84 85 86 87 88 89 90 91 92 93 94 95 96 97 98 99 100 101 102 103 104 105 106 107 108 109 110 111 112 113 114 115 116 117 118 119 120 121 122 123 124 125 126 127 128 129 0
-1 -2 3 0
1 -3 0
2 -3 0
1 2 4 0
-1 -4 0
-2 -4 0
3 4 5 0
-3 -5 0
-4 -5 0
6 7 8 0
-6 -8 0
-7 -8 0
-8 9 10 0
8 -10 0
-9 -10 0
-10 11 12 0
10 -12 0
-11 -12 0
-12 13 14 0
12 -14 0
-13 -14 0
-14 15 16 0
14 -16 0
-15 -16 0
-16 17 18 0
16 -18 0
-17 -18 0
-5 -18 19 0
5 -19 0
18 -19 0
5 18 20 0
-5 -20 0
-18 -20 0
19 20 21 0
-19 -21 0
-20 -21 0
16 -17 22 0
-16 -22 0
17 -22 0
22 18 23 0
-22 -23 0
-18 -23 0
-23 -24 25 0
23 -25 0
24 -25 0
23 24 26 0
-23 -26 0
-24 -26 0
25 26 27 0
-25 -27 0
-26 -27 0
14 -15 28 0
-14 -28 0
15 -28 0
28 16 29 0
-28 -29 0
-16 -29 0
-29 -30 31 0
29 -31 0
30 -31 0
29 30 32 0
-29 -32 0
-30 -32 0
31 32 33 0
-31 -33 0
-32 -33 0
12 -13 34 0
-12 -34 0
13 -34 0
34 14 35 0
-34 -35 0
-14 -35 0
-35 -36 37 0
35 -37 0
36 -37 0
35 36 38 0
-35 -38 0
-36 -38 0
37 38 39 0
-37 -39 0
-38 -39 0
10 -11 40 0
-10 -40 0
11 -40 0
40 12 41 0
-40 -41 0
-12 -41 0
-41 -42 43 0
41 -43 0
42 -43 0
41 42 44 0
-41 -44 0
-42 -44 0
43 44 45 0
-43 -45 0
-44 -45 0
8 -9 46 0
-8 -46 0
9 -46 0
46 10 47 0
-46 -47 0
-10 -47 0
-47 -48 49 0
47 -49 0
48 -49 0
47 48 50 0
-47 -50 0
-48 -50 0
49 50 51 0
-49 -51 0
-50 -51 0
-6 -7 52 0
6 -52 0
7 -52 0
52 8 53 0
-52 -53 0
-8 -53 0
-53 54 55 0
53 -55 0
-54 -55 0
53 -54 56 0
-53 -56 0
54 -56 0
55 56 57 0
-55 -57 0
-56 -57 0
-58 6 59 0
58 -59 0
-6 -59 0
58 -6 60 0
-58 -60 0
6 -60 0
59 60 61 0
-59 -61 0
-60 -61 0
-57 -61 62 0
57 -62 0
61 -62 0
51 -62 63 0
-51 -63 0
62 -63 0
45 -63 64 0
-45 -64 0
63 -64 0
39 -64 65 0
-39 -65 0
64 -65 0
33 -65 66 0
-33 -66 0
65 -66 0
27 -66 67 0
-27 -67 0
66 -67 0
-21 67 68 0
21 -68 0
-67 -68 0
-52 -9 69 0
52 -69 0
9 -69 0
-69 -11 70 0
69 -70 0
11 -70 0
-70 -13 71 0
70 -71 0
13 -71 0
-71 -15 72 0
71 -72 0
15 -72 0
-72 -17 73 0
72 -73 0
17 -73 0
-73 2 74 0
73 -74 0
-2 -74 0
73 -2 75 0
-73 -75 0
2 -75 0
74 75 76 0
-74 -76 0
-75 -76 0
71 15 77 0
-71 -77 0
-15 -77 0
77 72 78 0
-77 -78 0
-72 -78 0
-33 65 79 0
33 -79 0
-65 -79 0
79 66 80 0
-79 -80 0
-66 -80 0
-78 -80 81 0
78 -81 0
80 -81 0
72 17 82 0
-72 -82 0
-17 -82 0
82 73 83 0
-82 -83 0
-73 -83 0
-27 66 84 0
27 -84 0
-66 -84 0
84 67 85 0
-84 -85 0
-67 -85 0
-83 -85 86 0
83 -86 0
85 -86 0
81 86 87 0
-81 -87 0
-86 -87 0
70 13 88 0
-70 -88 0
-13 -88 0
88 71 89 0
-88 -89 0
-71 -89 0
-39 64 90 0
39 -90 0
-64 -90 0
90 65 91 0
-90 -91 0
-65 -91 0
89 91 92 0
-89 -92 0
-91 -92 0
78 80 93 0
-78 -93 0
-80 -93 0
92 93 94 0
-92 -94 0
-93 -94 0
69 11 95 0
-69 -95 0
-11 -95 0
95 70 96 0
-95 -96 0
-70 -96 0
-45 63 97 0
45 -97 0
-63 -97 0
97 64 98 0
-97 -98 0
-64 -98 0
-96 -98 99 0
96 -99 0
98 -99 0
-89 -91 100 0
89 -100 0
91 -100 0
99 100 101 0
-99 -101 0
-100 -101 0
-59 54 102 0
59 -102 0
-54 -102 0
61 54 103 0
-61 -103 0
-54 -103 0
103 -53 104 0
-103 -104 0
53 -104 0
-104 62 105 0
104 -105 0
-62 -105 0
102 105 106 0
-102 -106 0
-105 -106 0
-51 62 107 0
51 -107 0
-62 -107 0
107 63 108 0
-107 -108 0
-63 -108 0
52 9 109 0
-52 -109 0
-9 -109 0
109 69 110 0
-109 -110 0
-69 -110 0
-108 -110 111 0
108 -111 0
110 -111 0
-106 111 112 0
106 -112 0
-111 -112 0
108 110 113 0
-108 -113 0
-110 -113 0
112 113 114 0
-112 -114 0
-113 -114 0
96 98 115 0
-96 -115 0
-98 -115 0
-114 115 116 0
114 -116 0
-115 -116 0
-101 116 117 0
101 -117 0
-116 -117 0
-94 117 118 0
94 -118 0
-117 -118 0
-87 118 119 0
87 -119 0
-118 -119 0
83 85 120 0
-83 -120 0
-85 -120 0
119 120 121 0
-119 -121 0
-120 -121 0
-76 -121 122 0
76 -122 0
121 -122 0
-68 122 123 0
68 -123 0
-122 -123 0
76 121 124 0
-76 -124 0
-121 -124 0
21 -67 125 0
-21 -125 0
67 -125 0
-124 125 126 0
124 -126 0
-125 -126 0
-125 -122 127 0
125 -127 0
122 -127 0
126 127 128 0
-126 -128 0
-127 -128 0
123 -128 129 0
-123 -129 0
128 -129 0
-129 0
